c read Graph
c width = 272
c time = 221 ms
c width = 21
c time = 440 ms
c width = 20
c time = 551 ms
c width = 19
c time = 654 ms
c width = 19
c time = 3304 ms
s td 230 20 285
b 1 1 2 20
b 2 2 3 20 21
b 3 17 18 37 38
b 4 3 20 21 39
b 5 17 37 38 57
b 6 229 248 249 268
b 7 247 265 266 284
b 8 229 249 268 269
b 9 247 265 283 284
b 10 3 4 5 23
b 11 3 5 22 23 40 58
b 12 5 22 23 40 42 58 60
b 13 5 23 40 42 58 60 78
b 14 5 23 42 58 60 78 96
b 15 5 23 25 42 43 60 78 96
b 16 5 25 42 43 60 62 78 80 96
b 17 5 25 43 60 62 78 80 96 98
b 18 5 25 43 62 78 80 96 98 116
b 19 5 25 43 45 62 63 80 96 98 116
b 20 5 25 45 62 63 80 83 96 98 102 116 118 120 138
b 21 5 25 45 63 65 83 96 98 102 116 118 120 138
b 22 5 25 45 65 83 96 98 102 116 118 120 138 156 172 174 192
b 23 96 98 116 118 136 138 156 172 174 192
b 24 118 136 137 138 156
b 25 98 116 117 118 136
b 26 96 116 136 154 156 172 174 192
b 27 96 116 134 136 154 172
b 28 96 115 116 134
b 29 134 153 154 172
b 30 116 134 135 136 154
b 31 136 154 155 156 174
b 32 154 172 173 174 192
b 33 5 25 45 65 83 102 120 138 156 158 172 174 178 192 198 216 234 252 272
b 34 138 156 158 172 174 178 192 194 198 214 216 234 252 272
b 35 172 174 192 194 214 232 234 252 272
b 36 172 174 192 194 212 214 232 252 272
b 37 172 192 212 232 252 270 272
b 38 252 270 271 272
b 39 172 192 210 212 232 252 270
b 40 172 191 192 210
b 41 192 210 212 232 250 252 270
b 42 192 210 212 230 232 250 270
b 43 210 230 250 269 270
b 44 210 229 230 250 269
b 45 229 230 249 250 269
b 46 212 230 231 232 250
b 47 192 210 211 212 230
b 48 232 250 251 252 270
b 49 174 192 193 194 212
b 50 194 212 213 214 232
b 51 214 232 233 234 252
b 52 138 156 158 174 178 194 196 198 214 216 234
b 53 196 214 215 216 234
b 54 178 196 197 198 216
b 55 138 156 158 174 176 178 194 196 214
b 56 156 174 175 176 194
b 57 138 156 157 158 176
b 58 176 194 195 196 214
b 59 158 176 177 178 196
b 60 5 25 45 65 83 102 120 122 138 142 158 162 178 180 198 216 234 252 272
b 61 5 25 45 65 83 102 122 142 158 162 178 180 198 216 234 252 272
b 62 5 25 45 65 83 85 102 105 122 125 142 144 162 180 198 216 234 252 272
b 63 5 25 45 65 85 105 125 144 162 180 198 200 216 220 234 238 252 256 272 276
b 64 5 13 25 33 45 51 65 69 85 87 105 125 144 162 180 200 220 238 256 276
b 65 13 33 51 69 87 89 105 108 125 126 144 162 180 200 220 238 256 276
b 66 69 87 89 105 108 125 126 144 162 180 200 220 238 256 276
b 67 69 87 89 105 107 108 125 126
b 68 87 105 106 107 125
b 69 69 87 88 89 107
b 70 5 9 13 25 29 33 45 49 51 65 69 85 87 105
b 71 5 9 25 29 45 47 49 65 69 85 87 105
b 72 29 47 49 65 67 69 85 87 105
b 73 47 65 66 67 85
b 74 49 67 68 69 87
b 75 29 47 48 49 67
b 76 67 85 86 87 105
b 77 5 9 25 27 29 45 47 65
b 78 27 45 46 47 65
b 79 9 27 28 29 47
b 80 5 7 9 25 27 45
b 81 7 8 9 27
b 82 7 25 26 27 45
b 83 5 6 7 25
b 84 9 13 29 31 33 49 51 69
b 85 13 31 32 33 51
b 86 9 11 13 29 31 49
b 87 9 10 11 29
b 88 11 29 30 31 49
b 89 11 12 13 31
b 90 31 49 50 51 69
b 91 180 198 200 216 220 234 236 238 252 256 272 276
b 92 180 198 200 216 218 220 236 238 256
b 93 218 236 237 238 256
b 94 180 198 199 200 218
b 95 200 218 219 220 238
b 96 198 216 217 218 236
b 97 216 234 236 252 254 256 272 276
b 98 216 234 235 236 254
b 99 234 252 253 254 272
b 100 236 254 256 272 274 276
b 101 236 254 255 256 274
b 102 254 272 273 274
b 103 256 274 275 276
b 104 65 83 85 102 105 122 123 125 142 144 162
b 105 65 83 85 102 103 105 122 123
b 106 65 83 84 85 103
b 107 85 103 104 105 123
b 108 105 123 125 142 143 144 162
b 109 105 123 124 125 143
b 110 102 120 122 138 142 158 160 162 178 180 198
b 111 160 178 179 180 198
b 112 142 160 161 162 180
b 113 102 120 122 138 140 142 158 160 178
b 114 120 138 139 140 158
b 115 140 158 159 160 178
b 116 122 140 141 142 160
b 117 102 120 121 122 140
b 118 45 63 64 65 83
b 119 62 63 80 83 98 100 102 118 120 138
b 120 62 63 80 82 83 100 102 120
b 121 82 100 101 102 120
b 122 62 80 81 82 100
b 123 100 118 119 120 138
b 124 80 98 99 100 118
b 125 25 43 44 45 63
b 126 78 96 97 98 116
b 127 60 78 79 80 98
b 128 42 60 61 62 80
b 129 5 23 24 25 43
b 130 58 77 78 96
b 131 40 58 59 60 78
b 132 22 40 41 42 60
b 133 3 22 39 40 58
b 134 3 21 22 39 40
b 135 13 33 51 69 89 108 126 128 144 148 162 166 180 184 200 202 220 238 256 276
b 136 13 33 51 69 89 108 128 148 152 166 168 170 184 188 202 220 238 256 276
b 137 13 33 51 69 89 108 128 148 166 184 200 202 220 238 256 276
b 138 13 33 51 69 76 89 94 108 112 128 130 148 152 168 170 188
b 139 76 94 112 130 148 150 152 168 170 188
b 140 76 94 112 130 132 150 152 170
b 141 112 130 131 132 150
b 142 132 150 151 152 170
b 143 76 94 112 114 132 152
b 144 76 94 95 114
b 145 94 112 113 114 132
b 146 114 132 133 152
b 147 150 168 169 170 188
b 148 130 148 149 150 168
b 149 13 33 51 69 71 76 89 94 108 112 128 130 148
b 150 13 33 51 71 72 76 89 92 94 108 112 128 130 148
b 151 13 33 51 53 71 72 76 92 94 112
b 152 13 33 53 72 74 76 92 94 112
b 153 74 92 93 94 112
b 154 13 33 53 54 72 74 76 92 94
b 155 13 17 33 36 53 54 74 76 94
b 156 17 36 54 56 74 76 94
b 157 56 74 75 76 94
b 158 17 36 56 57 76
b 159 17 36 37 56 57
b 160 36 54 55 56 74
b 161 13 17 33 35 36 53 54
b 162 13 15 17 33 35 53
b 163 15 33 34 35 53
b 164 13 14 15 33
b 165 15 16 17 35
b 166 54 72 73 74 92
b 167 33 51 52 53 71
b 168 71 72 89 92 108 110 112 128 130 148
b 169 71 72 89 90 92 108 110 128
b 170 90 108 109 110 128
b 171 72 90 91 92 110
b 172 110 128 129 130 148
b 173 92 110 111 112 130
b 174 51 69 70 71 89
b 175 108 126 128 144 148 162 164 166 180 184 200 202 220
b 176 144 162 164 180 182 184 200 202 220
b 177 164 182 183 184 202
b 178 144 162 163 164 182
b 179 162 180 181 182 200
b 180 182 200 201 202 220
b 181 108 126 128 144 146 148 164 166 184
b 182 126 144 145 146 164
b 183 146 164 165 166 184
b 184 128 146 147 148 166
b 185 108 126 127 128 146
b 186 148 152 166 168 170 184 188 202 204 220 224 238 242 256 260 276 280
b 187 184 202 204 220 224 238 240 242 256 260 276 280
b 188 220 238 240 256 258 260 276 280
b 189 240 258 260 276 278 280
b 190 258 276 277 278
b 191 260 278 279 280
b 192 240 258 259 260 278
b 193 220 238 239 240 258
b 194 238 256 257 258 276
b 195 184 202 204 220 222 224 240 242 260
b 196 222 240 241 242 260
b 197 184 202 203 204 222
b 198 202 220 221 222 240
b 199 204 222 223 224 242
b 200 148 152 166 168 170 184 188 204 206 224 242 260 280
b 201 148 166 168 184 186 188 204 206 224
b 202 166 184 185 186 204
b 203 148 166 167 168 186
b 204 186 204 205 206 224
b 205 168 186 187 188 206
b 206 152 170 188 206 208 224 228 242 260 280
b 207 188 206 208 224 228 242 260 262 280
b 208 242 260 261 262 280
b 209 188 206 208 224 228 242 244 262 280
b 210 224 242 243 244 262
b 211 188 206 208 224 226 228 244 262 280
b 212 188 206 207 208 226
b 213 206 224 225 226 244
b 214 208 226 228 244 262 280 282
b 215 262 280 281 282
b 216 208 226 228 244 262 264 282
b 217 208 226 228 244 246 264 282
b 218 226 244 245 246 264
b 219 208 226 227 228 246
b 220 228 246 264 282 283
b 221 228 246 247 264 283
b 222 246 247 264 265 283
b 223 244 262 263 264 282
b 224 152 170 188 190 208 228
b 225 190 208 209 228
b 226 170 188 189 190 208
b 227 152 170 171 190
b 228 266 284 285
b 229 248 267 268
b 230 18 19 38
1 2
2 4
3 230
3 5
4 134
5 159
6 229
6 8
7 228
7 9
8 45
9 222
10 11
11 133
11 12
12 132
12 13
13 131
13 14
14 130
14 15
15 129
15 16
16 128
16 17
17 127
17 18
18 126
18 19
19 125
19 20
20 119
20 21
21 118
21 22
22 33
22 23
23 25
23 24
23 26
26 32
26 31
26 27
27 28
27 29
27 30
33 60
33 34
34 35
34 52
35 51
35 36
36 49
36 50
36 37
37 38
37 39
39 40
39 41
41 48
41 42
42 43
42 47
42 46
43 44
44 45
52 53
52 54
52 55
55 56
55 57
55 58
55 59
60 110
60 61
61 62
62 63
62 104
63 64
63 91
64 70
64 65
65 135
65 66
66 67
67 69
67 68
70 84
70 71
71 77
71 72
72 75
72 73
72 74
72 76
77 79
77 78
77 80
80 83
80 81
80 82
84 85
84 90
84 86
86 87
86 89
86 88
91 97
91 92
92 96
92 94
92 93
92 95
97 99
97 98
97 100
100 102
100 103
100 101
104 108
104 105
105 106
105 107
108 109
110 111
110 112
110 113
113 114
113 117
113 115
113 116
119 124
119 123
119 120
120 122
120 121
133 134
135 175
135 137
136 138
136 186
136 137
138 139
138 149
139 147
139 148
139 140
140 142
140 141
140 143
143 144
143 146
143 145
149 174
149 150
150 151
150 168
151 167
151 152
152 153
152 154
154 166
154 155
155 161
155 156
156 158
156 157
156 160
158 159
161 162
162 164
162 165
162 163
168 173
168 172
168 169
169 171
169 170
175 181
175 176
176 179
176 180
176 177
176 178
181 184
181 185
181 183
181 182
186 200
186 187
187 188
187 195
188 194
188 193
188 189
189 190
189 191
189 192
195 198
195 196
195 199
195 197
200 206
200 201
201 205
201 203
201 204
201 202
206 224
206 207
207 208
207 209
209 210
209 211
211 212
211 213
211 214
214 215
214 216
216 223
216 217
217 220
217 219
217 218
220 221
221 222
224 227
224 225
224 226
